letting n =  10
letting blocks =  [[1, 5], [1, 8], [2, 1], [2, 2], [2, 5], [2, 6], [2, 10], [3, 2], [3, 8], [4, 4], [4, 5], [4, 6], [4, 7], [4, 9], [5, 2], [5, 4], [5, 6], [5, 7], [5, 9], [6, 2], [6, 4], [6, 5], [6, 8], [6, 9], [7, 1], [7, 5], [7, 6], [7, 7], [7, 9], [7, 10], [8, 1], [8, 2], [8, 8], [8, 9], [8, 10], [9, 1], [9, 2], [9, 4], [9, 5], [9, 9], [9, 10], [10, 4], [10, 7], [10, 10]]
